% Logging successfully configured
%%%mzn-stat: initTime=0.003413945
%%%mzn-stat: objective=790
%%%mzn-stat: nodes=177
%%%mzn-stat: restarts=0
%%%mzn-stat: peakDepth=126
%%%mzn-stat: solveTime=0.009649482
%%%mzn-stat: variables=300
%%%mzn-stat: propagators=196
%%%mzn-stat: failures=51
%%%mzn-stat: propagations=1900
%%%mzn-stat: nogoods=51
%%%mzn-stat: numAtomicConstraintsPropagated=0
%%%mzn-stat: circuitNumber1PropagationsTotal=305
%%%mzn-stat: circuitNumber1CircuitConflicts=18
%%%mzn-stat: circuitNumber1AlldiffConflicts=0
%%%mzn-stat: circuitNumber1TotalFixedEdgesAtConflict=234
%%%mzn-stat: circuitNumber1NumberOfConflicts=18
%%%mzn-stat: circuitNumber1GacPrunings=696
%%%mzn-stat: circuitNumber1PropagationsThatGacPruned=173
%%%mzn-stat: circuitNumber1TotalPruningHallSetSize=1963
%%%mzn-stat: circuitNumber1NumberOfPruningExplanations=696
%%%mzn-stat: circuitNumber1MaxPruningHallSetSize=10
%%%mzn-stat: circuitNumber1TotalSccSizeAtPruning=979
%%%mzn-stat: circuitNumber1NumberOfSccPruningCalls=173
%%%mzn-stat: circuitNumber1TotalVarsInvolvedInPruning=513
%%%mzn-stat: circuitNumber1MaxValuesPrunedFromSingleVar=5
%%%mzn-stat: circuitNumber1HallCircuitChecks=345
%%%mzn-stat: circuitNumber1HallCircuitPrunings=4
%%%mzn-stat: circuitNumber1CircuitPreventPrunings=153
%%%mzn-stat: AverageConflictSize=11.176470588235293
%%%mzn-stat: NumUnitNogoodsLearned=0
%%%mzn-stat: AverageLearnedNogoodLength=15.705882352941176
%%%mzn-stat: AverageBacktrackAmount=0
%%%mzn-stat: AverageLbd=9.019607843137255
%%%mzn-stat: 2AutonomousSearchNumBackupCalled=115
%%%mzn-stat: 2AutonomousSearchNumPredicatesRemoved=0
%%%mzn-stat: 2AutonomousSearchNumCalls=116
%%%mzn-stat: 2AutonomousSearchNumPredicatesAdded=274
%%%mzn-stat: 2AutonomousSearchAverageSizeOfHeap=2.3620689655172415
%%%mzn-stat: 2AutonomousSearchNumAssignedPredicatesEncountered=274
%%%mzn-stat-end
maxleg = 790;
succ = array1d(1..20,[2, 7, 4, 9, 3, 5, 15, 10, 8, 11, 18, 13, 14, 1, 20, 12, 16, 17, 6, 19]);
% time elapsed: 0.18 s
----------
%%%mzn-stat: initTime=0.003413945
%%%mzn-stat: objective=449
%%%mzn-stat: nodes=307
%%%mzn-stat: restarts=0
%%%mzn-stat: peakDepth=131
%%%mzn-stat: solveTime=0.010438287
%%%mzn-stat: variables=300
%%%mzn-stat: propagators=196
%%%mzn-stat: failures=51
%%%mzn-stat: propagations=2245
%%%mzn-stat: nogoods=51
%%%mzn-stat: numAtomicConstraintsPropagated=0
%%%mzn-stat: circuitNumber1PropagationsTotal=334
%%%mzn-stat: circuitNumber1CircuitConflicts=18
%%%mzn-stat: circuitNumber1AlldiffConflicts=0
%%%mzn-stat: circuitNumber1TotalFixedEdgesAtConflict=234
%%%mzn-stat: circuitNumber1NumberOfConflicts=18
%%%mzn-stat: circuitNumber1GacPrunings=756
%%%mzn-stat: circuitNumber1PropagationsThatGacPruned=187
%%%mzn-stat: circuitNumber1TotalPruningHallSetSize=2079
%%%mzn-stat: circuitNumber1NumberOfPruningExplanations=756
%%%mzn-stat: circuitNumber1MaxPruningHallSetSize=10
%%%mzn-stat: circuitNumber1TotalSccSizeAtPruning=1015
%%%mzn-stat: circuitNumber1NumberOfSccPruningCalls=187
%%%mzn-stat: circuitNumber1TotalVarsInvolvedInPruning=566
%%%mzn-stat: circuitNumber1MaxValuesPrunedFromSingleVar=5
%%%mzn-stat: circuitNumber1HallCircuitChecks=379
%%%mzn-stat: circuitNumber1HallCircuitPrunings=6
%%%mzn-stat: circuitNumber1CircuitPreventPrunings=163
%%%mzn-stat: AverageConflictSize=11.176470588235293
%%%mzn-stat: NumUnitNogoodsLearned=0
%%%mzn-stat: AverageLearnedNogoodLength=15.705882352941176
%%%mzn-stat: AverageBacktrackAmount=0
%%%mzn-stat: AverageLbd=9.019607843137255
%%%mzn-stat: 2AutonomousSearchNumBackupCalled=231
%%%mzn-stat: 2AutonomousSearchNumPredicatesRemoved=0
%%%mzn-stat: 2AutonomousSearchNumCalls=233
%%%mzn-stat: 2AutonomousSearchNumPredicatesAdded=274
%%%mzn-stat: 2AutonomousSearchAverageSizeOfHeap=2.351931330472103
%%%mzn-stat: 2AutonomousSearchNumAssignedPredicatesEncountered=548
%%%mzn-stat-end
maxleg = 449;
succ = array1d(1..20,[2, 7, 4, 9, 6, 8, 14, 10, 5, 11, 18, 3, 12, 13, 1, 19, 16, 17, 20, 15]);
% time elapsed: 0.18 s
----------
%%%mzn-stat: initTime=0.003413945
%%%mzn-stat: objective=442
%%%mzn-stat: nodes=432
%%%mzn-stat: restarts=0
%%%mzn-stat: peakDepth=131
%%%mzn-stat: solveTime=0.011217429
%%%mzn-stat: variables=300
%%%mzn-stat: propagators=196
%%%mzn-stat: failures=51
%%%mzn-stat: propagations=2599
%%%mzn-stat: nogoods=51
%%%mzn-stat: numAtomicConstraintsPropagated=0
%%%mzn-stat: circuitNumber1PropagationsTotal=367
%%%mzn-stat: circuitNumber1CircuitConflicts=18
%%%mzn-stat: circuitNumber1AlldiffConflicts=0
%%%mzn-stat: circuitNumber1TotalFixedEdgesAtConflict=234
%%%mzn-stat: circuitNumber1NumberOfConflicts=18
%%%mzn-stat: circuitNumber1GacPrunings=810
%%%mzn-stat: circuitNumber1PropagationsThatGacPruned=204
%%%mzn-stat: circuitNumber1TotalPruningHallSetSize=2185
%%%mzn-stat: circuitNumber1NumberOfPruningExplanations=810
%%%mzn-stat: circuitNumber1MaxPruningHallSetSize=13
%%%mzn-stat: circuitNumber1TotalSccSizeAtPruning=1081
%%%mzn-stat: circuitNumber1NumberOfSccPruningCalls=204
%%%mzn-stat: circuitNumber1TotalVarsInvolvedInPruning=617
%%%mzn-stat: circuitNumber1MaxValuesPrunedFromSingleVar=5
%%%mzn-stat: circuitNumber1HallCircuitChecks=411
%%%mzn-stat: circuitNumber1HallCircuitPrunings=8
%%%mzn-stat: circuitNumber1CircuitPreventPrunings=177
%%%mzn-stat: AverageConflictSize=11.176470588235293
%%%mzn-stat: NumUnitNogoodsLearned=0
%%%mzn-stat: AverageLearnedNogoodLength=15.705882352941176
%%%mzn-stat: AverageBacktrackAmount=0
%%%mzn-stat: AverageLbd=9.019607843137255
%%%mzn-stat: 2AutonomousSearchNumBackupCalled=341
%%%mzn-stat: 2AutonomousSearchNumPredicatesRemoved=0
%%%mzn-stat: 2AutonomousSearchNumCalls=344
%%%mzn-stat: 2AutonomousSearchNumPredicatesAdded=274
%%%mzn-stat: 2AutonomousSearchAverageSizeOfHeap=2.38953488372093
%%%mzn-stat: 2AutonomousSearchNumAssignedPredicatesEncountered=822
%%%mzn-stat-end
maxleg = 442;
succ = array1d(1..20,[2, 7, 12, 9, 6, 8, 14, 10, 5, 11, 18, 4, 3, 13, 1, 19, 16, 17, 20, 15]);
% time elapsed: 0.18 s
----------
%%%mzn-stat: initTime=0.003413945
%%%mzn-stat: objective=380
%%%mzn-stat: nodes=548
%%%mzn-stat: restarts=0
%%%mzn-stat: peakDepth=131
%%%mzn-stat: solveTime=0.012858361
%%%mzn-stat: variables=300
%%%mzn-stat: propagators=196
%%%mzn-stat: failures=56
%%%mzn-stat: propagations=3087
%%%mzn-stat: nogoods=56
%%%mzn-stat: numAtomicConstraintsPropagated=0
%%%mzn-stat: circuitNumber1PropagationsTotal=419
%%%mzn-stat: circuitNumber1CircuitConflicts=21
%%%mzn-stat: circuitNumber1AlldiffConflicts=0
%%%mzn-stat: circuitNumber1TotalFixedEdgesAtConflict=285
%%%mzn-stat: circuitNumber1NumberOfConflicts=21
%%%mzn-stat: circuitNumber1GacPrunings=943
%%%mzn-stat: circuitNumber1PropagationsThatGacPruned=230
%%%mzn-stat: circuitNumber1TotalPruningHallSetSize=2514
%%%mzn-stat: circuitNumber1NumberOfPruningExplanations=943
%%%mzn-stat: circuitNumber1MaxPruningHallSetSize=13
%%%mzn-stat: circuitNumber1TotalSccSizeAtPruning=1210
%%%mzn-stat: circuitNumber1NumberOfSccPruningCalls=230
%%%mzn-stat: circuitNumber1TotalVarsInvolvedInPruning=712
%%%mzn-stat: circuitNumber1MaxValuesPrunedFromSingleVar=5
%%%mzn-stat: circuitNumber1HallCircuitChecks=462
%%%mzn-stat: circuitNumber1HallCircuitPrunings=10
%%%mzn-stat: circuitNumber1CircuitPreventPrunings=207
%%%mzn-stat: AverageConflictSize=11
%%%mzn-stat: NumUnitNogoodsLearned=0
%%%mzn-stat: AverageLearnedNogoodLength=15.892857142857142
%%%mzn-stat: AverageBacktrackAmount=0
%%%mzn-stat: AverageLbd=9.035714285714286
%%%mzn-stat: 2AutonomousSearchNumBackupCalled=439
%%%mzn-stat: 2AutonomousSearchNumPredicatesRemoved=0
%%%mzn-stat: 2AutonomousSearchNumCalls=443
%%%mzn-stat: 2AutonomousSearchNumPredicatesAdded=478
%%%mzn-stat: 2AutonomousSearchAverageSizeOfHeap=2.600451467268623
%%%mzn-stat: 2AutonomousSearchNumAssignedPredicatesEncountered=1152
%%%mzn-stat-end
maxleg = 380;
succ = array1d(1..20,[2, 7, 12, 9, 6, 8, 14, 11, 18, 17, 10, 4, 3, 13, 1, 19, 16, 5, 20, 15]);
% time elapsed: 0.18 s
----------
%%%mzn-stat: initTime=0.003413945
%%%mzn-stat: objective=373
%%%mzn-stat: nodes=646
%%%mzn-stat: restarts=0
%%%mzn-stat: peakDepth=131
%%%mzn-stat: solveTime=0.013595979
%%%mzn-stat: variables=300
%%%mzn-stat: propagators=196
%%%mzn-stat: failures=56
%%%mzn-stat: propagations=3444
%%%mzn-stat: nogoods=56
%%%mzn-stat: numAtomicConstraintsPropagated=0
%%%mzn-stat: circuitNumber1PropagationsTotal=442
%%%mzn-stat: circuitNumber1CircuitConflicts=21
%%%mzn-stat: circuitNumber1AlldiffConflicts=0
%%%mzn-stat: circuitNumber1TotalFixedEdgesAtConflict=285
%%%mzn-stat: circuitNumber1NumberOfConflicts=21
%%%mzn-stat: circuitNumber1GacPrunings=998
%%%mzn-stat: circuitNumber1PropagationsThatGacPruned=240
%%%mzn-stat: circuitNumber1TotalPruningHallSetSize=2813
%%%mzn-stat: circuitNumber1NumberOfPruningExplanations=998
%%%mzn-stat: circuitNumber1MaxPruningHallSetSize=18
%%%mzn-stat: circuitNumber1TotalSccSizeAtPruning=1310
%%%mzn-stat: circuitNumber1NumberOfSccPruningCalls=240
%%%mzn-stat: circuitNumber1TotalVarsInvolvedInPruning=747
%%%mzn-stat: circuitNumber1MaxValuesPrunedFromSingleVar=8
%%%mzn-stat: circuitNumber1HallCircuitChecks=482
%%%mzn-stat: circuitNumber1HallCircuitPrunings=12
%%%mzn-stat: circuitNumber1CircuitPreventPrunings=220
%%%mzn-stat: AverageConflictSize=11
%%%mzn-stat: NumUnitNogoodsLearned=0
%%%mzn-stat: AverageLearnedNogoodLength=15.892857142857142
%%%mzn-stat: AverageBacktrackAmount=0
%%%mzn-stat: AverageLbd=9.035714285714286
%%%mzn-stat: 2AutonomousSearchNumBackupCalled=528
%%%mzn-stat: 2AutonomousSearchNumPredicatesRemoved=0
%%%mzn-stat: 2AutonomousSearchNumCalls=533
%%%mzn-stat: 2AutonomousSearchNumPredicatesAdded=478
%%%mzn-stat: 2AutonomousSearchAverageSizeOfHeap=2.7804878048780486
%%%mzn-stat: 2AutonomousSearchNumAssignedPredicatesEncountered=1482
%%%mzn-stat-end
maxleg = 373;
succ = array1d(1..20,[2, 7, 12, 9, 6, 8, 14, 11, 18, 17, 10, 4, 3, 16, 1, 13, 19, 5, 20, 15]);
% time elapsed: 0.18 s
----------
%%%mzn-stat: initTime=0.003413945
%%%mzn-stat: objective=371
%%%mzn-stat: nodes=743
%%%mzn-stat: restarts=0
%%%mzn-stat: peakDepth=131
%%%mzn-stat: solveTime=0.014318478
%%%mzn-stat: variables=300
%%%mzn-stat: propagators=196
%%%mzn-stat: failures=56
%%%mzn-stat: propagations=3813
%%%mzn-stat: nogoods=56
%%%mzn-stat: numAtomicConstraintsPropagated=0
%%%mzn-stat: circuitNumber1PropagationsTotal=467
%%%mzn-stat: circuitNumber1CircuitConflicts=21
%%%mzn-stat: circuitNumber1AlldiffConflicts=0
%%%mzn-stat: circuitNumber1TotalFixedEdgesAtConflict=285
%%%mzn-stat: circuitNumber1NumberOfConflicts=21
%%%mzn-stat: circuitNumber1GacPrunings=1053
%%%mzn-stat: circuitNumber1PropagationsThatGacPruned=252
%%%mzn-stat: circuitNumber1TotalPruningHallSetSize=3053
%%%mzn-stat: circuitNumber1NumberOfPruningExplanations=1053
%%%mzn-stat: circuitNumber1MaxPruningHallSetSize=18
%%%mzn-stat: circuitNumber1TotalSccSizeAtPruning=1401
%%%mzn-stat: circuitNumber1NumberOfSccPruningCalls=252
%%%mzn-stat: circuitNumber1TotalVarsInvolvedInPruning=785
%%%mzn-stat: circuitNumber1MaxValuesPrunedFromSingleVar=8
%%%mzn-stat: circuitNumber1HallCircuitChecks=508
%%%mzn-stat: circuitNumber1HallCircuitPrunings=14
%%%mzn-stat: circuitNumber1CircuitPreventPrunings=232
%%%mzn-stat: AverageConflictSize=11
%%%mzn-stat: NumUnitNogoodsLearned=0
%%%mzn-stat: AverageLearnedNogoodLength=15.892857142857142
%%%mzn-stat: AverageBacktrackAmount=0
%%%mzn-stat: AverageLbd=9.035714285714286
%%%mzn-stat: 2AutonomousSearchNumBackupCalled=616
%%%mzn-stat: 2AutonomousSearchNumPredicatesRemoved=0
%%%mzn-stat: 2AutonomousSearchNumCalls=622
%%%mzn-stat: 2AutonomousSearchNumPredicatesAdded=478
%%%mzn-stat: 2AutonomousSearchAverageSizeOfHeap=2.9131832797427655
%%%mzn-stat: 2AutonomousSearchNumAssignedPredicatesEncountered=1812
%%%mzn-stat-end
maxleg = 371;
succ = array1d(1..20,[2, 7, 12, 9, 6, 18, 14, 5, 8, 17, 10, 4, 3, 16, 1, 13, 19, 11, 20, 15]);
% time elapsed: 0.18 s
----------
%%%mzn-stat: initTime=0.003413945
%%%mzn-stat: objective=356
%%%mzn-stat: nodes=835
%%%mzn-stat: restarts=0
%%%mzn-stat: peakDepth=131
%%%mzn-stat: solveTime=0.015193996
%%%mzn-stat: variables=300
%%%mzn-stat: propagators=196
%%%mzn-stat: failures=57
%%%mzn-stat: propagations=4203
%%%mzn-stat: nogoods=57
%%%mzn-stat: numAtomicConstraintsPropagated=0
%%%mzn-stat: circuitNumber1PropagationsTotal=495
%%%mzn-stat: circuitNumber1CircuitConflicts=22
%%%mzn-stat: circuitNumber1AlldiffConflicts=0
%%%mzn-stat: circuitNumber1TotalFixedEdgesAtConflict=301
%%%mzn-stat: circuitNumber1NumberOfConflicts=22
%%%mzn-stat: circuitNumber1GacPrunings=1112
%%%mzn-stat: circuitNumber1PropagationsThatGacPruned=265
%%%mzn-stat: circuitNumber1TotalPruningHallSetSize=3282
%%%mzn-stat: circuitNumber1NumberOfPruningExplanations=1112
%%%mzn-stat: circuitNumber1MaxPruningHallSetSize=18
%%%mzn-stat: circuitNumber1TotalSccSizeAtPruning=1505
%%%mzn-stat: circuitNumber1NumberOfSccPruningCalls=265
%%%mzn-stat: circuitNumber1TotalVarsInvolvedInPruning=827
%%%mzn-stat: circuitNumber1MaxValuesPrunedFromSingleVar=8
%%%mzn-stat: circuitNumber1HallCircuitChecks=534
%%%mzn-stat: circuitNumber1HallCircuitPrunings=16
%%%mzn-stat: circuitNumber1CircuitPreventPrunings=244
%%%mzn-stat: AverageConflictSize=11.087719298245615
%%%mzn-stat: NumUnitNogoodsLearned=0
%%%mzn-stat: AverageLearnedNogoodLength=15.947368421052632
%%%mzn-stat: AverageBacktrackAmount=0
%%%mzn-stat: AverageLbd=9.035087719298245
%%%mzn-stat: 2AutonomousSearchNumBackupCalled=698
%%%mzn-stat: 2AutonomousSearchNumPredicatesRemoved=0
%%%mzn-stat: 2AutonomousSearchNumCalls=705
%%%mzn-stat: 2AutonomousSearchNumPredicatesAdded=509
%%%mzn-stat: 2AutonomousSearchAverageSizeOfHeap=3.0609929078014186
%%%mzn-stat: 2AutonomousSearchNumAssignedPredicatesEncountered=2158
%%%mzn-stat-end
maxleg = 356;
succ = array1d(1..20,[2, 7, 12, 9, 6, 19, 14, 5, 11, 17, 10, 4, 3, 16, 1, 13, 18, 8, 20, 15]);
% time elapsed: 0.18 s
----------
==========
% time elapsed: 0.18 s
%%%mzn-stat: initTime=0.003413945
%%%mzn-stat: objective=356
%%%mzn-stat: nodes=865
%%%mzn-stat: restarts=0
%%%mzn-stat: peakDepth=131
%%%mzn-stat: solveTime=0.021537317
%%%mzn-stat: variables=300
%%%mzn-stat: propagators=196
%%%mzn-stat: failures=88
%%%mzn-stat: propagations=5295
%%%mzn-stat: nogoods=88
%%%mzn-stat: numAtomicConstraintsPropagated=0
%%%mzn-stat: circuitNumber1PropagationsTotal=657
%%%mzn-stat: circuitNumber1CircuitConflicts=41
%%%mzn-stat: circuitNumber1AlldiffConflicts=0
%%%mzn-stat: circuitNumber1TotalFixedEdgesAtConflict=430
%%%mzn-stat: circuitNumber1NumberOfConflicts=41
%%%mzn-stat: circuitNumber1GacPrunings=1555
%%%mzn-stat: circuitNumber1PropagationsThatGacPruned=358
%%%mzn-stat: circuitNumber1TotalPruningHallSetSize=6017
%%%mzn-stat: circuitNumber1NumberOfPruningExplanations=1555
%%%mzn-stat: circuitNumber1MaxPruningHallSetSize=18
%%%mzn-stat: circuitNumber1TotalSccSizeAtPruning=2922
%%%mzn-stat: circuitNumber1NumberOfSccPruningCalls=358
%%%mzn-stat: circuitNumber1TotalVarsInvolvedInPruning=1124
%%%mzn-stat: circuitNumber1MaxValuesPrunedFromSingleVar=8
%%%mzn-stat: circuitNumber1HallCircuitChecks=672
%%%mzn-stat: circuitNumber1HallCircuitPrunings=53
%%%mzn-stat: circuitNumber1CircuitPreventPrunings=348
%%%mzn-stat: AverageConflictSize=8.318181818181818
%%%mzn-stat: NumUnitNogoodsLearned=1
%%%mzn-stat: AverageLearnedNogoodLength=16.443181818181817
%%%mzn-stat: AverageBacktrackAmount=0
%%%mzn-stat: AverageLbd=6.863636363636363
%%%mzn-stat: 2AutonomousSearchNumBackupCalled=698
%%%mzn-stat: 2AutonomousSearchNumPredicatesRemoved=0
%%%mzn-stat: 2AutonomousSearchNumCalls=705
%%%mzn-stat: 2AutonomousSearchNumPredicatesAdded=910
%%%mzn-stat: 2AutonomousSearchAverageSizeOfHeap=3.0609929078014186
%%%mzn-stat: 2AutonomousSearchNumAssignedPredicatesEncountered=2158
%%%mzn-stat-end
